\ This file has been generated by DOcplex
\ ENCODING=ISO-8859-1
\Problem name: random_problem.lp

Minimize
 obj: 69 x0 + 55 x1 + 64 x2 + 43 x3 + 89 x4 + 80 x5 + 43 x6 + 85 x7 + 41 x8
      + 3 x9 + 31 x10 + 88 x11 + 85 x12
Subject To
 c0: x1 + x5 + x11 = 1
 c1: x1 + x2 + x6 + x11 = 1
 c2: x1 + x4 + x10 + x12 = 1
 c3: x0 + x1 + x3 + x6 + x7 + x8 + x9 = 1

Bounds
 0 <= x0 <= 1
 0 <= x1 <= 1
 0 <= x2 <= 1
 0 <= x3 <= 1
 0 <= x4 <= 1
 0 <= x5 <= 1
 0 <= x6 <= 1
 0 <= x7 <= 1
 0 <= x8 <= 1
 0 <= x9 <= 1
 0 <= x10 <= 1
 0 <= x11 <= 1
 0 <= x12 <= 1

Binaries
 x0 x1 x2 x3 x4 x5 x6 x7 x8 x9 x10 x11 x12
End
